NAME          DCAP_3_4_2_500_SS482
ROWS
 N  OBJ
 L  CON1
 L  CON2
 L  CON3
 L  CON4
 L  CON5
 L  CON6
 L  CON7
 L  CON8
 L  CON9
 L  CON10
 L  CON11
 L  CON12
 E  CON13
 E  CON14
 E  CON15
 E  CON16
 E  CON17
 E  CON18
 E  CON19
 E  CON20
COLUMNS
    x[1,1]    OBJ       6.180167      CON1      1.000000    
    x[1,1]    CON7      -1.000000     CON8      -1.000000   
    x[1,2]    OBJ       5.039546      CON2      1.000000    
    x[1,2]    CON8      -1.000000   
    x[2,1]    OBJ       6.732585      CON3      1.000000    
    x[2,1]    CON9      -1.000000     CON10     -1.000000   
    x[2,2]    OBJ       7.443064      CON4      1.000000    
    x[2,2]    CON10     -1.000000   
    x[3,1]    OBJ       6.563535      CON5      1.000000    
    x[3,1]    CON11     -1.000000     CON12     -1.000000   
    x[3,2]    OBJ       6.054841      CON6      1.000000    
    x[3,2]    CON12     -1.000000   
    MARKER    'MARKER'                'INTORG'
    u[1,1]    OBJ       48.076654     CON1      -1.000000   
    u[1,2]    OBJ       49.466655     CON2      -1.000000   
    u[2,1]    OBJ       49.996186     CON3      -1.000000   
    u[2,2]    OBJ       32.230043     CON4      -1.000000   
    u[3,1]    OBJ       20.066487     CON5      -1.000000   
    u[3,2]    OBJ       27.484319     CON6      -1.000000   
    y[1,1,1]  OBJ       7.759914      CON7      1.073851    
    y[1,1,1]  CON13     1.000000    
    y[1,1,2]  OBJ       9.723013      CON8      1.128451    
    y[1,1,2]  CON14     1.000000    
    y[1,2,1]  OBJ       7.742091      CON7      1.455469    
    y[1,2,1]  CON15     1.000000    
    y[1,2,2]  OBJ       6.141641      CON8      1.355672    
    y[1,2,2]  CON16     1.000000    
    y[1,3,1]  OBJ       7.366252      CON7      1.390763    
    y[1,3,1]  CON17     1.000000    
    y[1,3,2]  OBJ       5.118047      CON8      1.004679    
    y[1,3,2]  CON18     1.000000    
    y[1,4,1]  OBJ       9.810937      CON7      0.575547    
    y[1,4,1]  CON19     1.000000    
    y[1,4,2]  OBJ       6.621468      CON8      0.928319    
    y[1,4,2]  CON20     1.000000    
    y[2,1,1]  OBJ       5.167692      CON9      1.073851    
    y[2,1,1]  CON13     1.000000    
    y[2,1,2]  OBJ       6.288190      CON10     1.128451    
    y[2,1,2]  CON14     1.000000    
    y[2,2,1]  OBJ       8.365743      CON9      1.455469    
    y[2,2,1]  CON15     1.000000    
    y[2,2,2]  OBJ       7.928016      CON10     1.355672    
    y[2,2,2]  CON16     1.000000    
    y[2,3,1]  OBJ       7.719153      CON9      1.390763    
    y[2,3,1]  CON17     1.000000    
    y[2,3,2]  OBJ       8.049748      CON10     1.004679    
    y[2,3,2]  CON18     1.000000    
    y[2,4,1]  OBJ       5.496923      CON9      0.575547    
    y[2,4,1]  CON19     1.000000    
    y[2,4,2]  OBJ       6.870364      CON10     0.928319    
    y[2,4,2]  CON20     1.000000    
    y[3,1,1]  OBJ       6.269244      CON11     1.073851    
    y[3,1,1]  CON13     1.000000    
    y[3,1,2]  OBJ       5.913388      CON12     1.128451    
    y[3,1,2]  CON14     1.000000    
    y[3,2,1]  OBJ       9.483312      CON11     1.455469    
    y[3,2,1]  CON15     1.000000    
    y[3,2,2]  OBJ       7.129963      CON12     1.355672    
    y[3,2,2]  CON16     1.000000    
    y[3,3,1]  OBJ       6.092375      CON11     1.390763    
    y[3,3,1]  CON17     1.000000    
    y[3,3,2]  OBJ       6.484994      CON12     1.004679    
    y[3,3,2]  CON18     1.000000    
    y[3,4,1]  OBJ       9.287200      CON11     0.575547    
    y[3,4,1]  CON19     1.000000    
    y[3,4,2]  OBJ       5.066448      CON12     0.928319    
    y[3,4,2]  CON20     1.000000    
    z[1,1]    OBJ       939.024797    CON13     1.000000    
    z[1,2]    OBJ       832.006024    CON14     1.000000    
    z[2,1]    OBJ       535.730422    CON15     1.000000    
    z[2,2]    OBJ       557.404975    CON16     1.000000    
    z[3,1]    OBJ       699.653434    CON17     1.000000    
    z[3,2]    OBJ       984.105102    CON18     1.000000    
    z[4,1]    OBJ       795.769660    CON19     1.000000    
    z[4,2]    OBJ       962.009333    CON20     1.000000    
    MARKER    'MARKER'                 'INTEND'
RHS
    RHS       CON1      -0.000000     CON2      -0.000000   
    RHS       CON3      -0.000000     CON4      -0.000000   
    RHS       CON5      -0.000000     CON6      -0.000000   
    RHS       CON7      -0.000000     CON8      -0.000000   
    RHS       CON9      -0.000000     CON10     -0.000000   
    RHS       CON11     -0.000000     CON12     -0.000000   
    RHS       CON13     1.000000      CON14     1.000000    
    RHS       CON15     1.000000      CON16     1.000000    
    RHS       CON17     1.000000      CON18     1.000000    
    RHS       CON19     1.000000      CON20     1.000000    
BOUNDS
 BV BOUND     u[1,1]  
 BV BOUND     u[1,2]  
 BV BOUND     u[2,1]  
 BV BOUND     u[2,2]  
 BV BOUND     u[3,1]  
 BV BOUND     u[3,2]  
 BV BOUND     y[1,1,1]
 BV BOUND     y[1,1,2]
 BV BOUND     y[1,2,1]
 BV BOUND     y[1,2,2]
 BV BOUND     y[1,3,1]
 BV BOUND     y[1,3,2]
 BV BOUND     y[1,4,1]
 BV BOUND     y[1,4,2]
 BV BOUND     y[2,1,1]
 BV BOUND     y[2,1,2]
 BV BOUND     y[2,2,1]
 BV BOUND     y[2,2,2]
 BV BOUND     y[2,3,1]
 BV BOUND     y[2,3,2]
 BV BOUND     y[2,4,1]
 BV BOUND     y[2,4,2]
 BV BOUND     y[3,1,1]
 BV BOUND     y[3,1,2]
 BV BOUND     y[3,2,1]
 BV BOUND     y[3,2,2]
 BV BOUND     y[3,3,1]
 BV BOUND     y[3,3,2]
 BV BOUND     y[3,4,1]
 BV BOUND     y[3,4,2]
 BV BOUND     z[1,1]  
 BV BOUND     z[1,2]  
 BV BOUND     z[2,1]  
 BV BOUND     z[2,2]  
 BV BOUND     z[3,1]  
 BV BOUND     z[3,2]  
 BV BOUND     z[4,1]  
 BV BOUND     z[4,2]  
ENDATA
